(set-logic QF_S)
(declare-fun var0 () String)
(declare-fun var1 () Int)
(declare-fun var2 () Int)
(declare-fun var3 () String)
(declare-fun var4 () String)
(declare-fun var5 () String)
(declare-fun var6 () Int)
(declare-fun var7 () Int)
(declare-fun var8 () Bool)
(assert (str.contains (str.substr var0 var1 var2) (str.replace "_h]G:?F(!T" var3 var4)))
(assert (str.in.re (str.substr var5 var6 var7) (re.* re.allchar)))
(assert (not (not var8)))
(assert (str.in.re (str.substr "z5du<BO5{-" var7 var1) (re.+ re.allchar)))
(check-sat)